<number of tasks>
250

<cycle time>
1000

<order strength>
0.599


<task times>
1 120
2 134
3 117
4 192
5 277
6 52
7 95
8 170
9 287
10 65
11 83
12 159
13 182
14 334
15 180
16 521
17 536
18 44
19 385
20 103
21 208
22 253
23 222
24 84
25 236
26 248
27 230
28 334
29 33
30 323
31 176
32 243
33 264
34 221
35 224
36 212
37 105
38 57
39 48
40 263
41 237
42 320
43 488
44 336
45 128
46 161
47 86
48 51
49 263
50 132
51 177
52 119
53 32
54 24
55 195
56 80
57 207
58 154
59 269
60 262
61 30
62 513
63 463
64 90
65 193
66 78
67 289
68 405
69 44
70 536
71 523
72 585
73 293
74 428
75 344
76 244
77 140
78 35
79 317
80 421
81 246
82 360
83 249
84 30
85 79
86 111
87 432
88 63
89 89
90 319
91 138
92 41
93 432
94 233
95 58
96 305
97 38
98 285
99 238
100 30
101 78
102 244
103 342
104 451
105 188
106 93
107 82
108 183
109 551
110 29
111 36
112 309
113 81
114 98
115 144
116 45
117 63
118 120
119 122
120 594
121 72
122 226
123 51
124 91
125 292
126 89
127 139
128 39
129 304
130 221
131 132
132 212
133 426
134 120
135 505
136 48
137 41
138 186
139 149
140 467
141 131
142 435
143 23
144 157
145 211
146 135
147 132
148 56
149 559
150 391
151 130
152 184
153 21
154 79
155 95
156 44
157 139
158 199
159 99
160 468
161 99
162 461
163 129
164 209
165 161
166 105
167 560
168 291
169 113
170 215
171 122
172 133
173 318
174 350
175 56
176 335
177 217
178 328
179 322
180 491
181 61
182 167
183 76
184 288
185 154
186 241
187 138
188 324
189 187
190 182
191 104
192 233
193 391
194 374
195 245
196 132
197 76
198 35
199 353
200 146
201 174
202 48
203 146
204 104
205 234
206 165
207 356
208 318
209 213
210 503
211 263
212 579
213 123
214 137
215 71
216 87
217 491
218 302
219 110
220 117
221 137
222 521
223 23
224 217
225 499
226 202
227 44
228 131
229 155
230 150
231 424
232 410
233 177
234 217
235 289
236 270
237 57
238 61
239 70
240 414
241 138
242 82
243 292
244 65
245 42
246 336
247 81
248 455
249 430
250 165

<precedence relations>
1,135
2,168
3,168
4,168
5,24
6,24
7,156
8,232
9,76
10,71
11,13
11,16
11,18
11,20
12,13
12,14
12,15
12,17
12,19
12,21
12,22
12,23
13,24
14,24
15,24
16,24
17,24
18,24
19,24
20,73
21,73
22,106
23,25
23,26
23,27
23,28
23,29
23,30
23,31
23,32
23,69
24,33
24,34
24,35
24,36
24,37
24,38
24,39
24,40
24,41
24,42
24,43
24,44
24,45
24,46
24,47
24,48
25,73
26,73
27,232
28,185
29,76
30,106
31,137
31,140
32,178
32,183
33,106
34,64
34,72
35,49
35,50
35,72
36,49
36,54
36,71
37,49
37,54
37,94
37,95
38,106
38,118
39,49
39,72
40,49
40,53
40,55
41,49
41,51
41,56
41,68
42,138
42,152
43,62
44,49
45,49
45,52
46,118
46,157
47,197
48,49
48,70
49,73
50,210
51,106
52,106
53,71
54,65
54,66
55,57
55,58
55,59
55,65
56,57
56,60
56,61
56,62
56,63
56,64
57,135
58,135
59,168
60,210
61,76
62,71
63,71
64,71
65,67
65,70
66,68
66,69
66,72
67,168
68,73
69,76
70,106
71,74
71,77
71,78
71,79
71,80
71,81
71,82
71,83
71,84
71,85
71,86
71,87
71,88
71,89
71,90
71,91
72,75
72,92
73,96
73,97
73,98
73,99
73,100
73,101
73,106
74,125
75,185
76,102
76,103
76,104
76,105
77,106
78,152
79,152
80,149
81,93
81,94
81,95
82,151
82,158
83,94
83,137
83,166
84,93
85,118
85,158
86,93
87,166
88,95
89,246
90,137
91,187
92,93
92,107
93,135
94,156
95,156
98,128
98,158
98,166
99,108
99,118
99,134
100,117
100,125
100,147
101,108
101,147
101,157
102,108
102,109
102,123
103,108
103,153
104,108
104,153
105,108
105,169
105,170
106,110
106,111
106,112
106,113
106,114
106,115
106,116
107,109
107,140
108,168
109,125
110,158
111,133
112,121
112,123
113,120
113,148
114,120
114,134
116,122
118,119
118,166
119,156
120,232
121,125
122,125
123,124
123,125
123,126
124,210
125,127
125,128
125,129
125,130
125,131
125,132
125,133
125,152
126,127
126,134
127,135
128,156
129,185
130,136
130,138
130,141
131,137
133,139
133,183
134,140
135,142
135,143
135,144
135,145
135,146
135,148
136,168
137,210
138,197
139,187
140,147
140,149
140,150
141,150
141,186
142,168
143,185
144,153
145,181
145,211
146,151
148,154
149,152
149,157
150,182
151,168
152,156
153,155
153,157
154,199
155,168
156,159
156,160
156,161
156,162
156,163
156,164
156,165
156,167
157,158
157,166
157,169
158,168
159,168
159,169
159,170
160,169
160,182
161,170
161,190
162,169
162,200
163,190
165,170
166,170
166,185
167,170
167,225
168,171
168,172
168,173
168,174
168,175
168,176
168,177
168,178
169,197
171,229
173,235
174,179
176,180
179,210
180,181
180,182
180,183
180,184
181,232
182,185
183,186
183,189
183,209
184,185
184,187
184,188
184,190
185,191
185,192
185,193
185,194
185,195
185,196
185,198
186,197
187,197
188,213
188,250
190,198
191,199
193,200
197,199
197,202
197,203
197,204
197,205
197,206
197,207
197,208
198,199
198,201
198,209
199,210
200,210
201,210
202,226
202,232
202,233
203,211
203,224
206,247
207,224
208,212
208,213
208,235
209,212
210,214
210,215
210,216
210,217
210,218
210,219
210,220
210,221
210,222
212,232
213,223
213,224
218,225
218,228
218,231
219,227
221,226
221,227
222,230
224,229
224,234
225,232
227,235
228,234
230,233
230,250
232,236
232,237
232,238
232,239
232,240
232,241
232,242
232,243
232,244
236,245
237,247
238,248
240,248
241,245
244,245
244,246
244,247
245,249
246,250
247,248

<end>
